CPXPARAM_MIP_Strategy_HeuristicFreq#P37#0#2.174124#0.578903
CPXPARAM_MIP_Strategy_HeuristicFreq#P37#20#2.167332#0.577094
CPXPARAM_MIP_Strategy_HeuristicFreq#P37#40#3.755595#1.000000
CPXPARAM_MIP_Strategy_HeuristicFreq#P37#100#2.840260#0.756274
CPXPARAM_MIP_Strategy_HeuristicFreq#P37#500#2.840274#0.756278
CPXPARAM_MIP_Strategy_HeuristicFreq#P37#1000#2.840303#0.756286
